Route #1: 2 30 45
Route #2: 29 5 15 20
Route #3: 37 36 47 48
Route #4: 21 28 22
Route #5: 23 43 41 42 1
Route #6: 33 6 51
Route #7: 16 49 24 18
Route #8: 25 50 44 3
Route #9: 17 12 40
Route #10: 32 9
Route #11: 39 31 10
Route #12: 38 11
Route #13: 53 14 19
Route #14: 54 13 27 52
Route #15: 4 34
Route #16: 46 8 35 7
Route #17: 26
Cost 985